(set-option :print-success false)
(set-logic QF_UF)
(declare-sort x225 0)
(declare-fun x132 () x225)
(declare-fun x286 () x225)
(declare-fun x167 () x225)
(declare-fun x100 () x225)
(declare-fun x121 () x225)
(declare-fun x5 () x225)
(declare-fun x33 () x225)
(declare-fun x198 () x225)
(declare-fun x149 () x225)
(declare-fun x239 () x225)
(declare-fun x150 () x225)
(declare-fun x165 () x225)
(declare-fun x103 () x225)
(declare-fun x69 () x225)
(declare-fun x113 () x225)
(declare-fun x212 () x225)
(declare-fun x133 () x225)
(declare-fun x253 () x225)
(declare-fun x112 () x225)
(declare-fun x263 () x225)
(declare-fun x42 () x225)
(declare-fun x194 () x225)
(declare-fun x24 () x225)
(declare-fun x254 () x225)
(declare-fun x63 () x225)
(declare-fun x279 () x225)
(declare-fun x164 () x225)
(declare-fun x264 () x225)
(declare-fun x82 () x225)
(declare-fun x127 () x225)
(declare-fun x226 () x225)
(declare-fun x130 () x225)
(declare-fun x234 () x225)
(declare-fun x260 () x225)
(declare-fun x217 () x225)
(declare-fun x290 () x225)
(declare-fun x269 () x225)
(declare-fun x155 () x225)
(declare-fun x201 () x225)
(declare-fun x90 () x225)
(declare-fun x122 () x225)
(declare-fun x210 () x225)
(declare-fun x74 () x225)
(declare-fun x52 () x225)
(declare-fun x209 () x225)
(declare-fun x203 () x225)
(declare-fun x281 () x225)
(declare-fun x1 () x225)
(declare-fun x193 () x225)
(declare-fun x160 () x225)
(declare-fun x115 () x225)
(declare-fun x211 () x225)
(declare-fun x188 () x225)
(declare-fun x30 () x225)
(declare-fun x22 () x225)
(declare-fun x117 () x225)
(declare-fun x25 () x225)
(declare-fun x244 () x225)
(declare-fun x274 () x225)
(declare-fun x282 () x225)
(declare-fun x36 () x225)
(declare-fun x202 () x225)
(declare-fun x110 () x225)
(declare-fun x213 () x225)
(declare-fun x173 () x225)
(declare-fun x6 () x225)
(declare-fun x105 () x225)
(declare-fun x114 () x225)
(declare-fun x31 () x225)
(declare-fun x65 () x225)
(declare-fun x48 () x225)
(declare-fun x206 () x225)
(declare-fun x288 () x225)
(declare-fun x81 () x225)
(declare-fun x55 () x225)
(declare-fun x196 () x225)
(declare-fun x183 () x225)
(declare-fun x108 () x225)
(declare-fun x174 () x225)
(declare-fun x176 () x225)
(declare-fun x93 () x225)
(declare-fun x232 () x225)
(declare-fun x50 () x225)
(declare-fun x62 () x225)
(declare-fun x280 () x225)
(declare-fun x166 () x225)
(declare-fun x187 () x225)
(declare-fun x88 () x225)
(declare-fun x172 () x225)
(declare-fun x102 () x225)
(declare-fun x119 () x225)
(declare-fun x58 () x225)
(declare-fun x228 () x225)
(declare-fun x169 () x225)
(declare-fun x131 () x225)
(declare-fun x137 () x225)
(declare-fun x129 () x225)
(declare-fun x26 () x225)
(declare-fun x72 () x225)
(declare-fun x139 () x225)
(declare-fun x66 () x225)
(declare-fun x124 () x225)
(declare-fun x170 () x225)
(declare-fun x45 () x225)
(declare-fun x218 () x225)
(declare-fun x20 () x225)
(declare-fun x111 () x225)
(declare-fun x222 () x225)
(declare-fun x178 () x225)
(declare-fun x268 () x225)
(declare-fun x255 () x225)
(declare-fun x107 () x225)
(declare-fun x118 () x225)
(declare-fun x14 () x225)
(declare-fun x220 () x225)
(declare-fun x64 () x225)
(declare-fun x153 () x225)
(declare-fun x227 () x225)
(declare-fun x154 () x225)
(declare-fun x97 () x225)
(declare-fun x109 () x225)
(declare-fun x243 () x225)
(declare-fun x250 () x225)
(declare-fun x272 () x225)
(declare-fun x75 () x225)
(declare-fun x245 () x225)
(declare-fun x95 () x225)
(declare-fun x216 () x225)
(declare-fun x265 () x225)
(declare-fun x148 () x225)
(declare-fun x145 () x225)
(declare-fun x231 () x225)
(declare-fun x125 () x225)
(declare-fun x27 () x225)
(declare-fun x32 () x225)
(declare-fun x215 () x225)
(declare-fun x247 () x225)
(declare-fun x37 () x225)
(declare-fun x60 () x225)
(declare-fun x92 () x225)
(declare-fun x144 () x225)
(declare-fun x143 () x225)
(declare-fun x96 () x225)
(declare-fun x270 () x225)
(declare-fun x283 () x225)
(declare-fun x278 () x225)
(declare-fun x126 () x225)
(declare-fun x146 () x225)
(declare-fun x71 () x225)
(declare-fun x191 () x225)
(declare-fun x151 () x225)
(declare-fun x261 () x225)
(declare-fun x12 () x225)
(declare-fun x11 () x225)
(declare-fun x168 () x225)
(declare-fun x56 () x225)
(declare-fun x219 () x225)
(declare-fun x236 () x225)
(declare-fun x197 () x225)
(declare-fun x18 () x225)
(declare-fun x199 () x225)
(declare-fun x34 () x225)
(declare-fun x277 () x225)
(declare-fun x251 () x225)
(declare-fun x266 () x225)
(declare-fun x76 () x225)
(declare-fun x67 () x225)
(declare-fun x47 () x225)
(declare-fun x200 () x225)
(declare-fun x43 () x225)
(declare-fun x23 () x225)
(declare-fun x28 () x225)
(declare-fun x41 () x225)
(declare-fun x8 () x225)
(declare-fun x57 () x225)
(declare-fun x46 () x225)
(declare-fun x177 () x225)
(declare-fun x241 () x225)
(declare-fun x294 () x225)
(declare-fun x157 () x225)
(declare-fun x4 () x225)
(declare-fun x204 () x225)
(declare-fun x44 () x225)
(declare-fun x73 () x225)
(declare-fun x221 () x225)
(declare-fun x70 () x225)
(declare-fun x40 () x225)
(declare-fun x262 () x225)
(declare-fun x135 () x225)
(declare-fun x68 () x225)
(declare-fun x287 () x225)
(declare-fun x190 () x225)
(declare-fun x86 () x225)
(declare-fun x171 () x225)
(declare-fun x141 () x225)
(declare-fun x195 () x225)
(declare-fun x61 () x225)
(declare-fun x87 () x225)
(declare-fun x123 () x225)
(declare-fun x285 () x225)
(declare-fun x134 () x225)
(declare-fun x101 () x225)
(declare-fun x175 () x225)
(declare-fun x257 () x225)
(declare-fun x207 () x225)
(declare-fun x19 () x225)
(declare-fun x39 () x225)
(declare-fun x78 () x225)
(declare-fun x186 () x225)
(declare-fun x252 () x225)
(declare-fun x271 () x225)
(declare-fun x140 () x225)
(declare-fun x293 () x225)
(declare-fun x156 () x225)
(declare-fun x292 () x225)
(declare-fun x59 () x225)
(declare-fun x85 () x225)
(declare-fun x291 () x225)
(declare-fun x161 () x225)
(declare-fun x35 () x225)
(declare-fun x53 () x225)
(declare-fun x98 () x225)
(declare-fun x182 () x225)
(declare-fun x51 () x225)
(declare-fun x120 () x225)
(declare-fun x242 () x225)
(declare-fun x104 () x225)
(declare-fun x295 () x225)
(declare-fun x179 () x225)
(declare-fun x7 () x225)
(declare-fun x84 () x225)
(declare-fun x80 () x225)
(declare-fun x162 () x225)
(declare-fun x16 () x225)
(declare-fun x106 () x225)
(declare-fun x29 () x225)
(declare-fun x240 () x225)
(declare-fun x259 () x225)
(declare-fun x3 () x225)
(declare-fun x256 () x225)
(declare-fun x116 () x225)
(declare-fun x249 () x225)
(declare-fun x54 () x225)
(declare-fun x214 () x225)
(declare-fun x289 () x225)
(declare-fun x94 () x225)
(declare-fun x136 () x225)
(declare-fun x77 () x225)
(declare-fun x83 () x225)
(declare-fun x152 () x225)
(declare-fun x159 () x225)
(declare-fun x248 () x225)
(declare-fun x99 () x225)
(declare-fun x273 () x225)
(declare-fun x138 () x225)
(declare-fun x181 () x225)
(declare-fun x233 () x225)
(declare-fun x21 () x225)
(declare-fun x230 () x225)
(declare-fun x163 () x225)
(declare-fun x158 () x225)
(declare-fun x208 () x225)
(declare-fun x13 () x225)
(declare-fun x275 () x225)
(declare-fun x15 () x225)
(declare-fun x38 () x225)
(declare-fun x49 () x225)
(declare-fun x258 () x225)
(declare-fun x91 () x225)
(declare-fun x205 () x225)
(declare-fun x237 () x225)
(declare-fun x246 () x225)
(declare-fun x180 () x225)
(declare-fun x79 () x225)
(declare-fun x2 () x225)
(declare-fun x9 () x225)
(declare-fun x192 () x225)
(declare-fun x185 () x225)
(declare-fun x10 () x225)
(declare-fun x276 () x225)
(declare-fun x142 () x225)
(declare-fun x235 () x225)
(declare-fun x267 () x225)
(declare-fun x284 () x225)
(declare-fun x17 () x225)
(declare-fun x189 () x225)
(declare-fun x224 () x225)
(declare-fun x238 () x225)
(declare-fun x223 () x225)
(declare-fun x89 () x225)
(declare-fun x147 () x225)
(declare-fun x128 () x225)
(declare-fun x229 () x225)
(declare-fun x184 () x225)
(assert (and (or (and (= x27 x220) (= x67 x220)) (and (= x27 x280) (= x67 x280))) (or (and (= x159 x211) (= x66 x211)) (and (= x159 x95) (= x66 x95))) (or (and (= x171 x160) (= x162 x160)) (and (= x171 x226) (= x226 x162))) (or (and (= x13 x217) (= x124 x217)) (and (= x161 x13) (= x161 x124))) (or (and (= x63 x53) (= x28 x53)) (and (= x28 x156) (= x63 x156))) (or (and (= x246 x65) (= x89 x65)) (and (= x246 x250) (= x250 x89))) (or (and (= x207 x229) (= x24 x207)) (and (= x229 x235) (= x235 x24))) (or (and (= x191 x273) (= x273 x43)) (and (= x294 x191) (= x294 x43))) (or (and (= x39 x106) (= x265 x39)) (and (= x131 x265) (= x106 x131))) (or (and (= x10 x117) (= x256 x117)) (and (= x85 x256) (= x85 x10))) (or (and (= x232 x37) (= x269 x37)) (and (= x238 x269) (= x238 x232))) (or (and (= x114 x230) (= x230 x137)) (and (= x114 x149) (= x149 x137))) (or (and (= x13 x173) (= x182 x173)) (and (= x57 x13) (= x57 x182))) (or (and (= x213 x129) (= x83 x213)) (and (= x222 x83) (= x222 x129))) (or (and (= x33 x237) (= x33 x133)) (and (= x133 x92) (= x92 x237))) (or (and (= x212 x274) (= x212 x158)) (and (= x268 x158) (= x274 x268))) (or (and (= x271 x184) (= x3 x184)) (and (= x216 x3) (= x271 x216))) (or (and (= x249 x154) (= x154 x164)) (and (= x209 x164) (= x209 x249))) (or (and (= x114 x42) (= x177 x42)) (and (= x177 x194) (= x114 x194))) (or (and (= x77 x121) (= x77 x170)) (and (= x121 x119) (= x170 x119))) (or (and (= x262 x43) (= x40 x262)) (and (= x43 x87) (= x87 x40))) (or (and (= x137 x241) (= x261 x241)) (and (= x137 x206) (= x206 x261))) (or (and (= x168 x27) (= x168 x202)) (and (= x180 x27) (= x180 x202))) (or (and (= x254 x50) (= x182 x50)) (and (= x254 x199) (= x199 x182))) (or (and (= x150 x190) (= x150 x83)) (and (= x83 x96) (= x190 x96))) (or (and (= x236 x190) (= x104 x236)) (and (= x289 x104) (= x190 x289))) (or (and (= x146 x169) (= x88 x169)) (and (= x118 x146) (= x118 x88))) (or (and (= x214 x265) (= x166 x214)) (and (= x265 x60) (= x166 x60))) (or (and (= x132 x193) (= x132 x86)) (and (= x286 x86) (= x286 x193))) (or (and (= x200 x159) (= x293 x200)) (and (= x159 x165) (= x165 x293))) (or (and (= x248 x25) (= x8 x25)) (and (= x31 x248) (= x8 x31))) (or (and (= x162 x35) (= x195 x35)) (and (= x195 x22) (= x22 x162))) (or (and (= x6 x140) (= x140 x124)) (and (= x6 x231) (= x124 x231))) (or (and (= x259 x285) (= x196 x259)) (and (= x285 x148) (= x196 x148))) (or (and (= x55 x271) (= x55 x44)) (and (= x110 x271) (= x44 x110))) (or (and (= x49 x19) (= x290 x19)) (and (= x255 x49) (= x255 x290))) (or (and (= x251 x14) (= x251 x111)) (and (= x100 x14) (= x100 x111))) (or (and (= x30 x181) (= x30 x127)) (and (= x181 x76) (= x127 x76))) (or (and (= x106 x32) (= x32 x113)) (and (= x113 x233) (= x233 x106))) (not (= x143 x135)) (or (and (= x133 x292) (= x292 x270)) (and (= x102 x270) (= x102 x133))) (or (and (= x97 x34) (= x152 x97)) (and (= x51 x152) (= x51 x34))) (or (and (= x135 x228) (= x192 x228)) (and (= x276 x192) (= x276 x135))) (or (and (= x138 x282) (= x101 x138)) (and (= x101 x253) (= x253 x282))) (or (and (= x281 x113) (= x274 x281)) (and (= x113 x252) (= x274 x252))) (or (and (= x260 x67) (= x158 x260)) (and (= x155 x158) (= x67 x155))) (or (and (= x94 x232) (= x171 x94)) (and (= x15 x232) (= x171 x15))) (or (and (= x205 x143) (= x172 x205)) (and (= x172 x4) (= x4 x143))) (or (and (= x29 x157) (= x196 x157)) (and (= x196 x163) (= x163 x29))) (or (and (= x208 x221) (= x208 x10)) (and (= x10 x61) (= x61 x221))) (or (and (= x58 x116) (= x125 x58)) (and (= x183 x116) (= x183 x125))) (or (and (= x46 x284) (= x284 x126)) (and (= x2 x126) (= x46 x2))) (or (and (= x64 x176) (= x176 x293)) (and (= x99 x293) (= x99 x64))) (or (and (= x81 x270) (= x81 x1)) (and (= x1 x105) (= x105 x270))) (or (and (= x202 x197) (= x197 x64)) (and (= x267 x64) (= x202 x267))) (or (and (= x70 x62) (= x170 x70)) (and (= x62 x79) (= x79 x170))) (or (and (= x91 x16) (= x134 x91)) (and (= x16 x73) (= x73 x134))) (or (and (= x93 x195) (= x93 x256)) (and (= x256 x227) (= x227 x195))) (or (and (= x218 x264) (= x24 x218)) (and (= x24 x69) (= x69 x264))) (or (and (= x63 x41) (= x181 x41)) (and (= x18 x63) (= x18 x181))) (or (and (= x28 x188) (= x188 x121)) (and (= x121 x245) (= x28 x245))) (or (and (= x68 x145) (= x145 x279)) (and (= x98 x68) (= x98 x279))) (or (and (= x89 x21) (= x21 x269)) (and (= x287 x89) (= x269 x287))) (or (and (= x224 x164) (= x224 x237)) (and (= x80 x237) (= x80 x164))) (or (and (= x8 x59) (= x261 x59)) (and (= x261 x288) (= x8 x288))) (or (and (= x210 x29) (= x210 x40)) (and (= x283 x40) (= x283 x29))) (or (and (= x198 x223) (= x192 x223)) (and (= x5 x192) (= x198 x5))) (or (and (= x7 x242) (= x229 x7)) (and (= x229 x71) (= x242 x71))) (or (and (= x26 x108) (= x108 x242)) (and (= x242 x52) (= x52 x26))) (or (and (= x36 x174) (= x174 x249)) (and (= x295 x36) (= x295 x249))) (or (and (= x187 x146) (= x187 x112)) (and (= x72 x112) (= x146 x72))) (or (and (= x290 x147) (= x90 x147)) (and (= x239 x90) (= x290 x239))) (or (and (= x68 x54) (= x54 x38)) (and (= x122 x38) (= x68 x122))) (or (and (= x291 x125) (= x291 x152)) (and (= x123 x152) (= x123 x125))) (or (and (= x103 x56) (= x103 x191)) (and (= x56 x189) (= x189 x191))) (or (and (= x201 x264) (= x14 x201)) (and (= x264 x266) (= x14 x266))) (or (and (= x20 x282) (= x20 x6)) (and (= x282 x151) (= x6 x151))) (or (and (= x34 x277) (= x285 x277)) (and (= x34 x139) (= x285 x139))) (or (and (= x136 x111) (= x17 x136)) (and (= x144 x17) (= x144 x111))) (or (and (= x126 x84) (= x246 x84)) (and (= x126 x243) (= x243 x246))) (or (and (= x263 x153) (= x166 x263)) (and (= x153 x178) (= x166 x178))) (or (and (= x185 x49) (= x62 x185)) (and (= x9 x49) (= x9 x62))) (or (and (= x127 x215) (= x215 x88)) (and (= x203 x127) (= x203 x88))) (or (and (= x234 x129) (= x16 x234)) (and (= x129 x142) (= x16 x142))) (or (and (= x134 x275) (= x275 x198)) (and (= x120 x198) (= x120 x134))) (or (and (= x257 x46) (= x193 x257)) (and (= x46 x11) (= x11 x193))) (or (and (= x240 x17) (= x240 x86)) (and (= x278 x17) (= x278 x86))) (or (and (= x75 x38) (= x172 x75)) (and (= x38 x128) (= x172 x128))) (or (and (= x219 x3) (= x219 x177)) (and (= x177 x74) (= x74 x3))) (or (and (= x44 x107) (= x107 x90)) (and (= x44 x115) (= x90 x115))) (or (and (= x104 x272) (= x272 x1)) (and (= x179 x104) (= x179 x1))) (or (and (= x82 x36) (= x248 x82)) (and (= x48 x36) (= x248 x48))) (or (and (= x66 x141) (= x141 x101)) (and (= x167 x101) (= x167 x66))) (or (and (= x130 x153) (= x47 x130)) (and (= x204 x153) (= x47 x204))) (or (and (= x221 x175) (= x279 x175)) (and (= x279 x78) (= x78 x221))) (or (and (= x116 x12) (= x26 x12)) (and (= x23 x116) (= x26 x23))) (or (and (= x186 x254) (= x112 x186)) (and (= x112 x244) (= x244 x254))) (or (and (= x45 x47) (= x56 x45)) (and (= x109 x47) (= x109 x56)))))
(check-sat)
(exit)
